\ This file has been generated by DOcplex
\ ENCODING=ISO-8859-1
\Problem name: Market Sharing Problem

Minimize
 obj: s_plus_0 + s_plus_1 + s_minus_0 + s_minus_1
Subject To
 demand_constraint_0: 37 x_0 + 12 x_1 + 72 x_2 + 9 x_3 + 75 x_4 + 5 x_5 + 79 x_6
                      + 64 x_7 + 16 x_8 + x_9 + s_plus_0 - s_minus_0 = 185
 demand_constraint_1: 76 x_0 + 71 x_1 + 6 x_2 + 25 x_3 + 50 x_4 + 20 x_5
                      + 18 x_6 + 84 x_7 + 11 x_8 + 28 x_9 + s_plus_1 - s_minus_1
                       = 194

Bounds
 0 <= x_0 <= 1
 0 <= x_1 <= 1
 0 <= x_2 <= 1
 0 <= x_3 <= 1
 0 <= x_4 <= 1
 0 <= x_5 <= 1
 0 <= x_6 <= 1
 0 <= x_7 <= 1
 0 <= x_8 <= 1
 0 <= x_9 <= 1
       s_plus_0 <= 370
       s_plus_1 <= 389
       s_minus_0 <= 370
       s_minus_1 <= 389

Binaries
 x_0 x_1 x_2 x_3 x_4 x_5 x_6 x_7 x_8 x_9

Generals
 s_plus_0 s_plus_1 s_minus_0 s_minus_1
End
